Using license file /home/anupa/gurobi.lic
Academic license - for non-commercial use only

Gurobi Optimizer version 9.0.0 build v9.0.0rc2 (linux64)
Optimize a model with 22 rows, 27 columns and 58 nonzeros
Model fingerprint: 0x808b18c1
Model has 2 general constraints
Variable types: 27 continuous, 0 integer (0 binary)
Coefficient statistics:
  Matrix range     [8e-02, 3e+04]
  Objective range  [1e+00, 1e+00]
  Bounds range     [1e+00, 3e+04]
  RHS range        [1e+00, 5e+01]

---------------------------------------------------------------------------
Multi-objectives: starting optimization with 4 objectives ... 
---------------------------------------------------------------------------

Multi-objectives: applying initial presolve ...
---------------------------------------------------------------------------

Presolve removed 8 rows and 5 columns
Presolve time: 0.00s
Presolved: 14 rows and 22 columns
---------------------------------------------------------------------------

Multi-objectives: optimize objective 1 (tot_mem_cpu) ...
---------------------------------------------------------------------------

Presolve removed 7 rows and 8 columns
Presolve time: 0.00s
Presolved: 7 rows, 14 columns, 24 nonzeros
Presolved model has 2 SOS constraint(s)
Variable types: 12 continuous, 2 integer (2 binary)

Root relaxation: objective 2.490900e+04, 7 iterations, 0.00 seconds

    Nodes    |    Current Node    |     Objective Bounds      |     Work
 Expl Unexpl |  Obj  Depth IntInf | Incumbent    BestBd   Gap | It/Node Time

*    0     0               0    24908.996094 24908.9961  0.00%     -    0s

Explored 0 nodes (7 simplex iterations) in 0.00 seconds
Thread count was 12 (of 12 available processors)

Solution count 1: 24909 

Optimal solution found (tolerance 1.00e-04)
Best objective 2.490899609375e+04, best bound 2.490899609375e+04, gap 0.0000%
---------------------------------------------------------------------------

Multi-objectives: optimize objective 2 (cpu_mem_load) ...
---------------------------------------------------------------------------


Loaded user MIP start with objective 12454.5

Presolve removed 8 rows and 9 columns
Presolve time: 0.00s
Presolved: 7 rows, 13 columns, 25 nonzeros
Presolved model has 2 SOS constraint(s)
Variable types: 11 continuous, 2 integer (2 binary)

Root relaxation: cutoff, 3 iterations, 0.00 seconds

    Nodes    |    Current Node    |     Objective Bounds      |     Work
 Expl Unexpl |  Obj  Depth IntInf | Incumbent    BestBd   Gap | It/Node Time

     0     0     cutoff    0      12454.4980 12454.4980  0.00%     -    0s

Explored 0 nodes (3 simplex iterations) in 0.00 seconds
Thread count was 12 (of 12 available processors)

Solution count 1: 12454.5 

Optimal solution found (tolerance 1.00e-04)
Best objective 1.245449804688e+04, best bound 1.245449804688e+04, gap 0.0000%
---------------------------------------------------------------------------

Multi-objectives: optimize objective 3 (tot_mem_p4) ...
---------------------------------------------------------------------------


Loaded user MIP start with objective 576

Presolve removed 10 rows and 17 columns
Presolve time: 0.00s
Presolved: 6 rows, 5 columns, 14 nonzeros
Variable types: 4 continuous, 1 integer (1 binary)

Root relaxation: objective 5.735091e+02, 0 iterations, 0.00 seconds

    Nodes    |    Current Node    |     Objective Bounds      |     Work
 Expl Unexpl |  Obj  Depth IntInf | Incumbent    BestBd   Gap | It/Node Time

*    0     0               0     573.5090984  573.50910  0.00%     -    0s

Explored 0 nodes (0 simplex iterations) in 0.00 seconds
Thread count was 12 (of 12 available processors)

Solution count 1: 573.509 

Optimal solution found (tolerance 1.00e-04)
Warning: max constraint violation (1.0000e-06) exceeds tolerance
Best objective 5.735090983906e+02, best bound 5.735090983906e+02, gap 0.0000%
---------------------------------------------------------------------------

Multi-objectives: optimize objective 4 (p4_mem_load) ...
---------------------------------------------------------------------------


Loaded user MIP start with objective 573.509

Presolve removed 11 rows and 17 columns
Presolve time: 0.00s
Presolved: 6 rows, 5 columns, 14 nonzeros
Found heuristic solution: objective 573.5090994
Variable types: 4 continuous, 1 integer (1 binary)

Explored 0 nodes (0 simplex iterations) in 0.00 seconds
Thread count was 12 (of 12 available processors)

Solution count 2: 573.509 573.509 

Optimal solution found (tolerance 1.00e-04)
Warning: max constraint violation (1.0000e-06) exceeds tolerance
Best objective 5.735090983906e+02, best bound 5.735090983906e+02, gap 0.0000%

---------------------------------------------------------------------------
Multi-objectives: solved in 0.00 seconds, solution count 3

--------------------------------------------------
Model update took: 4.1484832763671875e-05 seconds
Model optimize took: 0.0038492679595947266 seconds
--------------------------------------------------

Solution quality statistics for model netmon :
  Maximum violation:
    Bound       : 0.00000000e+00
    Constraint  : 0.00000000e+00
    Integrality : 0.00000000e+00

Sketch (0) (cm: eps0: 0.03125, del0: 0.05, min_mem: 0.33984375)
Par: 1, Rows: 3
0.000    0.000    1.000    
Total frac: 1.000

Sketch (1) (cm: eps0: 1.25e-06, del0: 0.05, min_mem: 8494.6328125)
Par: 1, Rows: 3
0.489    0.023    0.489    
Total frac: 1.000

Sketch (2) (cm: eps0: 0.625, del0: 0.025, min_mem: 0.01953125)
Par: 1, Rows: 4
0.000    0.000    1.000    
Total frac: 1.000

Device (0) cpu_1:
Rows total: 1.466307464090837
Mem total: 12455.743497679689

Device (1) p4_1:
Rows total: 0.06751428944011498
Mem total: 573.509098390623

Device (2) cpu_2:
Rows total: 8.466178246469049
Mem total: 12455.743497679689
--------------------------------------------------
Changed value of parameter NonConvex to 2
   Prev: -1  Min: -1  Max: 2  Default: -1
Changed value of parameter NonConvex to 2
   Prev: -1  Min: -1  Max: 2  Default: -1

Throughput: 35.0 Mpps, ns per packet: 28.571428571428573
Resources: 95.00593779119455

Sketch (0) (cm: eps0: 0.03125, del0: 0.05, min_mem: 0.33984375)
Par: 1, Rows: 3
0.000    0.000    1.000    
Total frac: 1.000

Sketch (1) (cm: eps0: 1.25e-06, del0: 0.05, min_mem: 8494.6328125)
Par: 1, Rows: 3
0.489    0.023    0.489    
Total frac: 1.000

Sketch (2) (cm: eps0: 0.625, del0: 0.025, min_mem: 0.01953125)
Par: 1, Rows: 4
0.000    0.000    1.000    
Total frac: 1.000

Device (0) cpu_1:
cores_sketch: 1.0, cores_dpdk: 1.0
Rows total: 1.466307464090837
Mem total: 12455.743497679689
Throughput: 35.0

Device (1) p4_1:
Rows total: 0.06751428944011498
Mem total: 573.509098390623
Throughput: 148.0

Device (2) cpu_2:
cores_sketch: 5.0, cores_dpdk: 1.0
Rows total: 8.466178246469049
Mem total: 12455.743497679689
Throughput: 35.0
--------------------------------------------------
